105	22	4	54	
10	12	11	10

0	0	0	0	0	0	4	1	2	3	4
1	0	0	0	4	1	2	5	10
2	0	9	0	0	4	2	6	7
3	0	0	9	0	7	3	7	11	19
4	0	0	0	6	10	2	10	15
5	0	10	0	0	8	3	7	11	19
6	0	0	6	0	3	1	8
7	0	0	4	0	4	3	12	13	15
8	0	0	1	0	2	1	9
9	0	0	0	1	1	2	10	15
10	0	0	1	0	10	2	11	19
11	0	6	0	0	2	2	12	13
12	0	0	4	0	1	2	14	20
13	0	9	0	0	10	2	14	20
14	9	0	0	0	7	2	16	18
15	10	0	0	0	6	3	16	18	20
16	0	0	7	0	8	1	17
17	6	0	0	0	7	1	21
18	4	0	0	0	5	1	21
19	0	1	0	0	7	1	21
20	0	0	0	2	2	1	21
21	0	0	0	0	0	0
